(set-info :smt-lib-version 2.6)
(set-logic LIA)
(set-info :source "|
Generated by the tool Ultimate Automizer [1,2] which implements
an automata theoretic approach [3] to software verification.

This SMT script belongs to a set of SMT scripts that was generated by
applying Ultimate Automizer to benchmarks [4] from the SV-COMP 2019 [5,6].
This script might _not_ contain all SMT commands that are used by
Ultimate Automizer. In order to satisfy the restrictions of
the SMT-COMP we have to drop e.g., the commands for getting
values (resp. models), unsatisfiable cores and interpolants.

2019-04-27, Matthias Heizmann (heizmann@informatik.uni-freiburg.de)

[1] https://ultimate.informatik.uni-freiburg.de/automizer/
[2] Matthias Heizmann, Yu-Fang Chen, Daniel Dietsch, Marius Greitschus,
     Jochen Hoenicke, Yong Li, Alexander Nutz, Betim Musa, Christian
     Schilling, Tanja Schindler, Andreas Podelski: Ultimate Automizer
     and the Search for Perfect Interpolants - (Competition Contribution).
     TACAS (2) 2018: 447-451
[3] Matthias Heizmann, Jochen Hoenicke, Andreas Podelski: Software Model
     Checking for People Who Love Automata. CAV 2013:36-52
[4] https://github.com/sosy-lab/sv-benchmarks
[5] Dirk Beyer: Automatic Verification of C and Java Programs: SV-COMP 2019.
     TACAS (3) 2019: 133-155
[6] https://sv-comp.sosy-lab.org/2019/
|")
(set-info :license "https://creativecommons.org/licenses/by/4.0/")
(set-info :category "industrial")
(set-info :status sat)
(declare-fun |c___VERIFIER_assert_#in~cond| () Int)
(declare-fun c___VERIFIER_assert_~cond () Int)
(assert (= |c___VERIFIER_assert_#in~cond| c___VERIFIER_assert_~cond))
(assert (not (let ((.cse0 (not (= |c___VERIFIER_assert_#in~cond| 0))) (.cse1 (not (= |c___VERIFIER_assert_#in~cond| 1)))) (and .cse0 (or .cse0 .cse1 (forall ((|main_#t~nondet0| Int) (v_main_~x~0_BEFORE_CALL_4 Int) (v_main_~z~0_BEFORE_CALL_4 Int) (|main_#t~nondet1| Int) (|main_#t~nondet2| Int) (v_main_~y~0_BEFORE_CALL_4 Int)) (or (exists ((v_prenex_2 Int) (v_prenex_3 Int) (v_prenex_1 Int)) (= 4 (mod (+ (* 8 v_prenex_1) (* 4 v_main_~x~0_BEFORE_CALL_4) v_main_~z~0_BEFORE_CALL_4 (* 8 v_prenex_2) (* 8 v_prenex_3) (* 2 v_main_~y~0_BEFORE_CALL_4)) 4294967296))) (not (= 4 (mod (+ (* 8 |main_#t~nondet0|) (* 4 v_main_~x~0_BEFORE_CALL_4) v_main_~z~0_BEFORE_CALL_4 (* 8 |main_#t~nondet1|) (* 8 |main_#t~nondet2|) (* 2 v_main_~y~0_BEFORE_CALL_4)) 4294967296)))))) (or (forall ((|main_#t~nondet0| Int) (v_main_~x~0_BEFORE_CALL_4 Int) (v_main_~z~0_BEFORE_CALL_4 Int) (|main_#t~nondet1| Int) (|main_#t~nondet2| Int) (v_main_~y~0_BEFORE_CALL_4 Int)) (let ((.cse2 (* 4 v_main_~x~0_BEFORE_CALL_4)) (.cse3 (* 2 v_main_~y~0_BEFORE_CALL_4))) (or (exists ((v_prenex_2 Int) (v_prenex_3 Int) (v_prenex_1 Int)) (= 4 (mod (+ (* 8 v_prenex_1) (* 4 v_main_~x~0_BEFORE_CALL_4) v_main_~z~0_BEFORE_CALL_4 (* 8 v_prenex_2) (* 8 v_prenex_3) (* 2 v_main_~y~0_BEFORE_CALL_4)) 4294967296))) (= (mod (+ .cse2 v_main_~z~0_BEFORE_CALL_4 .cse3) 4294967296) 4) (not (= 4 (mod (+ (* 8 |main_#t~nondet0|) .cse2 v_main_~z~0_BEFORE_CALL_4 (* 8 |main_#t~nondet1|) (* 8 |main_#t~nondet2|) .cse3) 4294967296)))))) .cse1)))))
(check-sat)
(exit)
